max_width = 36;
n_blocks = 23;
width = [12, 5, 5, 5, 5, 4, 4, 4, 3, 3, 3, 3, 3, 3, 3, 3, 3, 3, 3, 3, 3, 3, 3];
height = [36, 15, 14, 4, 3, 22, 11, 3, 36, 24, 16, 15, 14, 12, 11, 10, 9, 8, 7, 6, 5, 4, 3];
